5 5
3 43 2 51 4 13 1 90 0 73
3 68 1 95 2 69 0 7 4 92
1 78 0 88 3 42 4 5 2 47
2 48 1 98 3 92 4 47 0 8
3 21 1 88 4 24 0 13 2 15
-1
0 1 3 5
0 2 3 4 5
0 2 3 5
0 1 5
0 1 4 5
-2
46 163 270
210 298 306 454
195 281 300
50 363
33 206 250

501 7
11 8 4 19 23
10 6 16 3 21
15 1 7 14 24
5 0 12 20 17
13 2 9 18 22
